(set-logic QF_S)
(set-option :parse-transducers true)
(set-option :produce-models true)
(define-fun-rec toLower ((x String) (y String)) Bool
   (or (and (= x "") (= y ""))
       (and (not (= x "")) (not (= y ""))
           (= (char.code (str.head y))
               (ite (and (<= 65 (char.code (str.head x)))
                       (<= (char.code (str.head x)) 90))
                   (+ (char.code (str.head x)) 32)
                   (char.code (str.head x))))
           (toLower (str.tail x) (str.tail y))))
)
(declare-fun sym122 () String)
(declare-fun sym247 () String)
(declare-fun L1  () String)
(declare-fun L0  () String)
(assert (toLower sym247  L0 ))
(assert (toLower sym122  L1 ))

(assert (not (= L0 "/clear" )))
(assert (not (= L1 "elementary" )))
(assert (not (str.contains L0 "/setfont" )))
(assert (= L0 "/help" ))
(assert (not (str.contains L0 "/say" )))
(assert (not (= L0 "y" )))
(assert (not (= L0 "n" )))
(assert (= L1 "middle school" ))
(assert (not (= L0 "/restart" )))
(assert (not (str.contains L0 "/setsize" )))
(assert (not (= L0 "/quit" )))
(check-sat)
(get-model)
(exit)
